NAME: tsp20-3
TYPE: TSP
DIMENSION: 20
EDGE_WEIGHT_TYPE: EUC_2D
NODE_COORD_SECTION
0 81 94
1 48 95
2 96 94
3 84 4
4 38 32
5 10 87
6 9 86
7 28 15
8 62 50
9 59 95
10 68 53
11 20 90
12 12 48
13 89 35
14 31 81
15 66 22
16 3 57
17 61 64
18 64 26
19 61 1
EOF